; output/00000341.smt: generated with canalyze.
; $2 Assumption: true
(declare-const $2 Int)
(assert (and (< (- 9223372036854775808) $2) (< $2 9223372036854775807)))
(assert (not (= $2 0)))
; ((650(U32) + $1) == 668(U32)) Assumption: true
(declare-const $1 Int)
(assert (and (< 0 $1) (< $1 4294967295)))
(assert (= (+ 650 $1) 668))
; $0 Assumption: true
(declare-const $0 Int)
(assert (and (< (- 9223372036854775808) $0) (< $0 9223372036854775807)))
(assert (not (= $0 0)))
(check-sat)
